c uprop, v00.0, 
c reading from data/prog273.c.cnf
c done reading: 0.002844
p cnf 136 607
-63 -78 0
63 78 0
-72 -74 0
72 74 0
-66 -71 0
66 71 0
-65 -75 0
65 75 0
-61 -68 0
61 68 0
-58 -59 0
58 59 0
56 -78 0
-56 78 0
-74 -78 81 0
74 78 -81 0
74 -81 0
78 -81 0
74 -81 -82 0
78 -81 -82 0
-81 -82 0
-74 81 82 0
-78 81 82 0
74 78 -82 0
-71 -74 83 0
-71 -81 83 0
-74 -81 83 0
71 74 -83 0
71 81 -83 0
74 81 -83 0
71 -83 -84 0
74 -83 -84 0
81 -83 -84 0
-71 83 84 0
-74 83 84 0
-81 83 84 0
-71 -74 -81 84 0
71 74 81 -84 0
-65 -71 85 0
-65 -83 85 0
-71 -83 85 0
65 71 -85 0
65 83 -85 0
71 83 -85 0
65 -85 -86 0
71 -85 -86 0
83 -85 -86 0
-65 85 86 0
-71 85 86 0
-83 85 86 0
-65 -71 -83 86 0
65 71 83 -86 0
-61 -65 88 0
-61 -85 88 0
-65 -85 88 0
61 65 -88 0
61 85 -88 0
65 85 -88 0
61 -88 -90 0
65 -88 -90 0
85 -88 -90 0
-61 88 90 0
-65 88 90 0
-85 88 90 0
-61 -65 -85 90 0
61 65 85 -90 0
-58 -61 92 0
-58 -88 92 0
-61 -88 92 0
58 61 -92 0
58 88 -92 0
61 88 -92 0
58 -92 -94 0
61 -92 -94 0
88 -92 -94 0
-58 92 94 0
-61 92 94 0
-88 92 94 0
-58 -61 -88 94 0
58 61 88 -94 0
58 -79 0
-79 92 0
-58 79 -92 0
-58 -77 -92 0
58 -77 92 0
-58 77 92 0
58 77 -92 0
56 -73 0
-56 73 0
-56 -70 0
56 70 0
64 -73 -82 0
-64 82 0
-64 73 82 0
-64 73 0
-60 -64 82 0
-60 -64 0
-60 -64 73 0
60 64 -82 0
60 64 -73 0
-60 73 82 0
57 -78 -84 0
57 -64 -84 0
57 -64 -78 0
-57 78 84 0
-57 64 84 0
-57 64 78 0
-55 -57 84 0
-55 -57 78 0
-55 -57 64 0
55 57 -84 0
55 57 -78 0
55 57 -64 0
55 -64 -78 -84 0
-55 64 78 84 0
54 -74 -86 0
54 -57 -86 0
54 -57 -74 0
-54 74 86 0
-54 57 86 0
-54 57 74 0
-53 -54 86 0
-53 -54 74 0
-53 -54 57 0
53 54 -86 0
53 54 -74 0
53 54 -57 0
53 -57 -74 -86 0
-53 57 74 86 0
52 -71 -90 0
52 -54 -90 0
52 -54 -71 0
-52 71 90 0
-52 54 90 0
-52 54 71 0
-50 -52 90 0
-50 -52 71 0
-50 -52 54 0
50 52 -90 0
50 52 -71 0
50 52 -54 0
50 -54 -71 -90 0
-50 54 71 90 0
48 -65 -94 0
48 -52 -94 0
48 -52 -65 0
-48 65 94 0
-48 52 94 0
-48 52 65 0
-46 -48 94 0
-46 -48 65 0
-46 -48 52 0
46 48 -94 0
46 48 -65 0
46 48 -52 0
46 -52 -65 -94 0
-46 52 65 94 0
44 -61 -77 0
44 -48 -77 0
44 -48 -61 0
-44 61 77 0
-44 48 77 0
-44 48 61 0
-42 -44 77 0
-42 -44 61 0
-42 -44 48 0
42 44 -77 0
42 44 -61 0
42 44 -48 0
42 -48 -61 -77 0
-42 48 61 77 0
40 -58 -79 0
40 -44 -79 0
40 -44 -58 0
-40 58 79 0
-40 44 79 0
-40 44 58 0
-38 -40 79 0
-38 -40 58 0
-38 -40 44 0
38 40 -79 0
38 40 -58 0
38 40 -44 0
38 -44 -58 -79 0
-38 44 58 79 0
-36 60 0
36 -60 0
-34 -60 0
34 60 0
32 -36 -55 0
-32 55 0
-32 36 55 0
-32 36 0
-30 -32 55 0
-30 -32 0
-30 -32 36 0
30 32 -55 0
30 32 -36 0
-30 36 55 0
28 -53 -78 0
28 -32 -53 0
28 -32 -78 0
-28 53 78 0
-28 32 53 0
-28 32 78 0
-26 -28 53 0
-26 -28 78 0
-26 -28 32 0
26 28 -53 0
26 28 -78 0
26 28 -32 0
26 -32 -53 -78 0
-26 32 53 78 0
24 -50 -74 0
24 -28 -50 0
24 -28 -74 0
-24 50 74 0
-24 28 50 0
-24 28 74 0
-22 -24 50 0
-22 -24 74 0
-22 -24 28 0
22 24 -50 0
22 24 -74 0
22 24 -28 0
22 -28 -50 -74 0
-22 28 50 74 0
20 -46 -71 0
20 -24 -46 0
20 -24 -71 0
-20 46 71 0
-20 24 46 0
-20 24 71 0
-18 -20 46 0
-18 -20 71 0
-18 -20 24 0
18 20 -46 0
18 20 -71 0
18 20 -24 0
18 -24 -46 -71 0
-18 24 46 71 0
16 -42 -65 0
16 -20 -42 0
16 -20 -65 0
-16 42 65 0
-16 20 42 0
-16 20 65 0
-15 -16 42 0
-15 -16 65 0
-15 -16 20 0
15 16 -42 0
15 16 -65 0
15 16 -20 0
15 -20 -42 -65 0
-15 20 42 65 0
14 -38 -61 0
14 -16 -38 0
14 -16 -61 0
-14 38 61 0
-14 16 38 0
-14 16 61 0
-13 -14 38 0
-13 -14 61 0
-13 -14 16 0
13 14 -38 0
13 14 -61 0
13 14 -16 0
13 -16 -38 -61 0
-13 16 38 61 0
12 -40 -58 0
12 -14 -40 0
12 -14 -58 0
-12 40 58 0
-12 14 40 0
-12 14 58 0
-11 -12 40 0
-11 -12 58 0
-11 -12 14 0
11 12 -40 0
11 12 -58 0
11 12 -14 0
11 -14 -40 -58 0
-11 14 40 58 0
26 -62 0
-26 62 0
-10 -26 0
10 26 0
-22 -62 95 0
22 -95 0
22 62 -95 0
62 -95 0
22 -95 -96 0
-95 -96 0
62 -95 -96 0
-22 95 96 0
-62 95 96 0
22 62 -96 0
-18 -78 97 0
-18 -95 97 0
-78 -95 97 0
18 78 -97 0
18 95 -97 0
78 95 -97 0
18 -97 -98 0
78 -97 -98 0
95 -97 -98 0
-18 97 98 0
-78 97 98 0
-95 97 98 0
-18 -78 -95 98 0
18 78 95 -98 0
-15 -74 99 0
-15 -97 99 0
-74 -97 99 0
15 74 -99 0
15 97 -99 0
74 97 -99 0
-15 99 0
-74 99 0
-97 99 0
-15 -74 -97 0
-13 -71 100 0
-13 -99 100 0
-71 -99 100 0
13 71 -100 0
13 99 -100 0
71 99 -100 0
-13 100 0
-71 100 0
-99 100 0
-13 -71 -99 0
-11 -65 101 0
-11 -100 101 0
-65 -100 101 0
11 65 -101 0
11 100 -101 0
65 100 -101 0
-11 101 0
-65 101 0
-100 101 0
-11 -65 -100 0
-12 -61 102 0
-12 -101 102 0
-61 -101 102 0
12 61 -102 0
12 101 -102 0
61 101 -102 0
-12 102 0
-61 102 0
-101 102 0
-12 -61 -101 0
-58 -102 0
-58 102 0
58 -102 0
-70 -103 0
70 103 0
-34 -104 0
34 104 0
-30 -105 0
30 105 0
-10 -106 0
10 106 0
-96 -107 0
96 107 0
-98 -108 0
98 108 0
-109 -110 0
-110 -111 0
109 110 111 0
109 111 -112 0
-109 -111 -112 0
-109 111 112 0
109 -111 112 0
110 -114 0
-113 -114 0
-110 113 114 0
-110 113 -115 0
110 -113 -115 0
110 113 115 0
-110 -113 115 0
114 -116 0
-114 116 0
-114 -117 0
114 117 0
116 -118 0
-116 118 0
-116 -119 0
116 119 0
118 -120 0
-118 120 0
-118 -121 0
118 121 0
120 -122 0
-120 122 0
-120 -123 0
120 123 0
122 -124 0
-122 124 0
-122 -125 0
122 125 0
111 -126 0
109 -126 0
-109 -111 126 0
-109 -111 -127 0
109 111 -127 0
109 -111 127 0
-109 111 127 0
-111 -113 128 0
-113 -126 128 0
-111 -126 128 0
111 113 -128 0
113 126 -128 0
111 126 -128 0
113 -128 -129 0
111 -128 -129 0
126 -128 -129 0
-113 128 129 0
-111 128 129 0
-126 128 129 0
-111 -113 -126 129 0
111 113 126 -129 0
-113 -128 130 0
113 -130 0
128 -130 0
113 128 -130 0
-130 -131 0
113 -130 -131 0
128 -130 -131 0
-113 130 131 0
-128 130 131 0
113 128 -131 0
-130 132 0
130 -132 0
-67 129 0
-67 109 0
67 -109 -129 0
-109 -129 -133 0
109 129 -133 0
109 -129 133 0
-109 129 133 0
76 -111 -131 0
-67 76 -131 0
-67 76 -111 0
-76 111 131 0
67 -76 131 0
67 -76 111 0
-76 131 -134 0
-76 111 -134 0
67 -76 -134 0
76 -131 134 0
76 -111 134 0
-67 76 134 0
-67 -111 -131 134 0
67 111 131 -134 0
69 -113 -132 0
69 -76 -132 0
69 -76 -113 0
-69 113 132 0
-69 76 132 0
-69 76 113 0
-69 132 -135 0
-69 113 -135 0
-69 76 -135 0
69 -132 135 0
69 -113 135 0
69 -76 135 0
-76 -113 -132 135 0
76 113 132 -135 0
-69 136 0
69 -136 0
-87 134 0
-87 109 0
87 -109 -134 0
-89 -109 -134 0
-89 109 134 0
89 109 -134 0
89 -109 134 0
91 -111 -135 0
-87 91 -135 0
-87 91 -111 0
-91 111 135 0
87 -91 135 0
87 -91 111 0
-91 -93 135 0
-91 -93 111 0
87 -91 -93 0
91 93 -135 0
91 93 -111 0
-87 91 93 0
-87 93 -111 -135 0
87 -93 111 135 0
-113 -136 0
-91 -136 0
-91 -113 0
80 -136 0
80 -113 0
80 -91 0
80 -91 -113 -136 0
-80 91 113 136 0
-51 -109 0
-51 -127 0
51 109 127 0
-49 109 127 0
-49 -109 -127 0
49 -109 127 0
49 109 -127 0
-47 51 0
-47 -133 0
47 -51 133 0
-45 -51 133 0
-45 51 -133 0
45 51 133 0
45 -51 -133 0
-43 47 0
-43 -89 0
43 -47 89 0
-41 -47 89 0
-41 47 -89 0
41 47 89 0
41 -47 -89 0
-39 43 0
-39 -93 0
39 -43 93 0
-37 -43 93 0
-37 43 -93 0
37 43 93 0
37 -43 -93 0
-35 39 0
-35 -80 0
35 -39 80 0
-33 -39 80 0
-33 39 -80 0
33 39 80 0
33 -39 -80 0
-31 35 0
31 -35 0
-29 -35 0
29 35 0
-27 31 0
27 -31 0
-25 -31 0
25 31 0
-23 27 0
23 -27 0
-21 -27 0
21 27 0
-19 23 0
19 -23 0
-17 -23 0
17 23 0
-9 19 0
9 -19 0
-8 -19 0
8 19 0
-7 9 0
7 -9 0
-6 -9 0
6 9 0
-5 70 0
-5 109 0
5 -70 -109 0
-70 -109 0
70 109 0
4 -34 -127 0
4 -5 -34 0
4 -5 -127 0
-4 34 127 0
-4 5 34 0
-4 5 127 0
-4 34 0
-4 127 0
-4 5 0
5 34 127 0
3 -30 -133 0
3 -4 -30 0
3 -4 -133 0
-3 30 133 0
-3 4 30 0
-3 4 133 0
-3 30 0
-3 133 0
-3 4 0
4 30 133 0
2 -10 -89 0
2 -3 -10 0
2 -3 -89 0
-2 10 89 0
-2 3 10 0
-2 3 89 0
2 -10 0
2 -89 0
2 -3 0
-3 -10 -89 0
1 -93 -96 0
1 -2 -96 0
1 -2 -93 0
-1 93 96 0
-1 2 96 0
-1 2 93 0
1 -96 0
1 -93 0
1 -2 0
-2 -93 -96 0
-80 -98 0
-1 -98 0
-1 -80 0
1 80 98 0
